c launch: 3600 1800 32768 /home/cril/wallon/new-cdcl/divide /data/PB/PB06/SATUNSAT-SMALLINT/submitted-PB05/aloul/FPGA_SAT05/normalized-fpga20_20_sat_pb.cnf.cr.opb.bz2 /home/cril/wallon/new-cdcl/divide/results/data_PB_PB06_SATUNSAT_SMALLINT_submitted_PB05_aloul_FPGA_SAT05_normalized_fpga20_20_sat_pb.cnf.cr.opb.bz2
c CPU timeout: 3600
c wall timeout: 1800
c memout: 32768
c executable: /home/cril/wallon/new-cdcl/divide/start.sh
c job: /data/PB/PB06/SATUNSAT-SMALLINT/submitted-PB05/aloul/FPGA_SAT05/normalized-fpga20_20_sat_pb.cnf.cr.opb.bz2
c output directory: /home/cril/wallon/new-cdcl/divide/results/data_PB_PB06_SATUNSAT_SMALLINT_submitted_PB05_aloul_FPGA_SAT05_normalized_fpga20_20_sat_pb.cnf.cr.opb.bz2
c SAT4J PB solver for KTH experiments
c version CUSTOM.v20200204
c Cutting planes based inference (org.sat4j.pb.core.PBSolverCP)
c  - never skip resolution steps
c  - Auto-division on coefficients is disabled
c  - No postprocessing
c  - Divide the constraint by the coefficient of the pivot when resolving, and weaken away non-divisible coefficient.
c  - Weaken first using unassigned literals
c --- Begin Solver configuration ---
c org.sat4j.pb.constraints.PBMaxClauseCardConstrDataStructure@17579e0f
c Learn all clauses as in MiniSAT
c LOGGER=java.util.logging.Logger@59e5ddf claDecay=0.999 varDecay=0.95 conflictBoundIncFactor=1.5 initConflictBound=100 
c VSIDS like heuristics from MiniSAT using a heap phase appearing in latest learned clause taking into account the objective function
c No reason simplification
c Armin Biere (Picosat) restarts strategy
c Glucose 2 learned constraints deletion strategy (LBD updated on propagation) with timer check every 1000 if the learned constraints reach increasing bounds: 5000 step 1000
c timeout=2147483s
c DB Simplification allowed=false
c Listener: org.sat4j.minisat.core.VoidTracing@1877ab81
c --- End Solver configuration ---
s SATISFIABLE
v -x1 x2 -x3 -x4 -x5 -x6 -x7 -x8 -x9 -x10 -x11 -x12 -x13 -x14 -x15 -x16 -x17 -x18 -x19 -x20 -x21 -x22 -x23 -x24 -x25 -x26 -x27 -x28 -x29 -x30 -x31 -x32 x33 -x34 -x35 -x36 -x37 -x38 -x39 -x40 -x41 -x42 -x43 -x44 -x45 -x46 -x47 -x48 -x49 -x50 x51 -x52 -x53 -x54 -x55 -x56 -x57 -x58 -x59 -x60 -x61 -x62 -x63 -x64 -x65 -x66 -x67 -x68 -x69 -x70 -x71 -x72 -x73 -x74 -x75 x76 -x77 -x78 -x79 -x80 -x81 -x82 -x83 -x84 -x85 -x86 -x87 -x88 -x89 -x90 -x91 -x92 -x93 -x94 -x95 -x96 -x97 -x98 -x99 x100 -x101 -x102 -x103 -x104 -x105 -x106 -x107 x108 -x109 -x110 -x111 -x112 -x113 -x114 -x115 -x116 -x117 -x118 -x119 -x120 -x121 -x122 -x123 -x124 -x125 -x126 -x127 -x128 -x129 x130 -x131 -x132 -x133 -x134 -x135 -x136 -x137 -x138 -x139 -x140 -x141 -x142 -x143 -x144 x145 -x146 -x147 -x148 -x149 -x150 -x151 -x152 -x153 -x154 -x155 -x156 -x157 -x158 -x159 -x160 -x161 -x162 -x163 -x164 -x165 -x166 -x167 -x168 -x169 -x170 -x171 -x172 -x173 x174 -x175 -x176 -x177 -x178 -x179 -x180 -x181 -x182 -x183 x184 -x185 -x186 -x187 -x188 -x189 -x190 -x191 -x192 -x193 -x194 -x195 -x196 -x197 -x198 -x199 -x200 -x201 -x202 -x203 -x204 -x205 -x206 -x207 -x208 -x209 -x210 -x211 -x212 -x213 -x214 -x215 -x216 -x217 x218 -x219 -x220 x221 -x222 -x223 -x224 -x225 -x226 -x227 -x228 -x229 -x230 -x231 -x232 -x233 -x234 -x235 -x236 -x237 -x238 -x239 -x240 -x241 -x242 -x243 -x244 -x245 -x246 -x247 -x248 -x249 -x250 -x251 -x252 -x253 -x254 -x255 -x256 -x257 -x258 x259 -x260 -x261 -x262 -x263 -x264 -x265 -x266 -x267 -x268 -x269 -x270 -x271 -x272 -x273 -x274 -x275 -x276 x277 -x278 -x279 -x280 -x281 -x282 -x283 -x284 -x285 -x286 -x287 -x288 -x289 -x290 -x291 -x292 -x293 -x294 x295 -x296 -x297 -x298 -x299 -x300 -x301 -x302 x303 -x304 -x305 -x306 -x307 -x308 -x309 -x310 -x311 -x312 -x313 -x314 -x315 -x316 -x317 -x318 -x319 -x320 -x321 -x322 -x323 -x324 -x325 -x326 -x327 -x328 x329 -x330 -x331 -x332 -x333 -x334 -x335 -x336 -x337 -x338 -x339 -x340 -x341 -x342 -x343 -x344 -x345 -x346 x347 -x348 -x349 -x350 -x351 -x352 -x353 -x354 -x355 -x356 -x357 -x358 -x359 -x360 -x361 -x362 -x363 -x364 -x365 -x366 -x367 -x368 -x369 -x370 -x371 x372 -x373 -x374 -x375 -x376 -x377 -x378 -x379 -x380 -x381 -x382 -x383 -x384 -x385 x386 -x387 -x388 -x389 -x390 -x391 -x392 -x393 -x394 -x395 -x396 -x397 -x398 -x399 -x400 x401 -x402 -x403 -x404 -x405 -x406 -x407 -x408 -x409 -x410 -x411 -x412 x413 -x414 -x415 -x416 -x417 -x418 -x419 -x420 -x421 -x422 -x423 -x424 -x425 -x426 -x427 x428 -x429 -x430 -x431 -x432 -x433 x434 -x435 -x436 -x437 -x438 -x439 -x440 -x441 -x442 -x443 -x444 -x445 -x446 -x447 -x448 -x449 x450 -x451 -x452 -x453 -x454 -x455 -x456 -x457 -x458 x459 -x460 -x461 -x462 -x463 -x464 x465 -x466 -x467 -x468 -x469 -x470 -x471 -x472 -x473 -x474 -x475 x476 -x477 -x478 -x479 -x480 -x481 x482 -x483 -x484 -x485 -x486 -x487 -x488 -x489 -x490 -x491 -x492 -x493 -x494 -x495 -x496 x497 -x498 -x499 -x500 -x501 -x502 -x503 x504 -x505 -x506 -x507 -x508 -x509 -x510 -x511 -x512 x513 -x514 -x515 -x516 -x517 -x518 -x519 -x520 x521 -x522 -x523 -x524 -x525 -x526 -x527 -x528 -x529 -x530 -x531 -x532 -x533 -x534 -x535 -x536 x537 -x538 -x539 -x540 -x541 -x542 -x543 -x544 -x545 x546 -x547 -x548 -x549 -x550 -x551 -x552 -x553 -x554 -x555 -x556 -x557 -x558 -x559 x560 -x561 -x562 -x563 -x564 -x565 -x566 -x567 x568 -x569 -x570 -x571 -x572 -x573 -x574 x575 -x576 -x577 -x578 -x579 -x580 -x581 -x582 -x583 -x584 -x585 -x586 -x587 -x588 x589 -x590 -x591 x592 -x593 -x594 -x595 -x596 -x597 -x598 -x599 -x600  0
c starts		: 4
c conflicts		: 437
c decisions		: 6216
c propagations		: 27994
c inspects		: 1267093
c shortcuts		: 0
c learnt literals	: 0
c learnt binary clauses	: 0
c learnt ternary clauses	: 0
c learnt constraints	: 437
c ignored constraints	: 0
c root simplifications	: 0
c removed literals (reason simplification)	: 0
c reason swapping (by a shorter reason)	: 0
c Calls to reduceDB	: 0
c Number of update (reduction) of LBD	: 0
c Imported unit clauses	: 0
c number of reductions to clauses (during analyze)	: 0
c number of learned constraints concerned by reduction	: 0
c number of learning phase by resolution	: 0
c number of learning phase by cutting planes	: 0
c number of rounding to 1 operations	: 262
c number of easy rounding to 1 operations (no literal elimination needed)	: 0
c number of reductions of the coefficients by power 2 	: 0
c number of right shift for reduction by power 2 	: 0
c number of reductions of the coefficients by GCD over coefficients 	: 0
c number of ending skipping 	: 0
c number of internal skipping 	: 0
c number of derivation steps 	: 6432
c number of skipped derivation steps 	: 0
c number of remaining unassigned 	: 128
c number of remaining assigned 	: 25083
c speed (assignments/second)	: 44647.52791068581
c non guided choices	: 181
c learnt constraints type org.sat4j.pb.constraints.pb.LearntHTClausePB	: 7
c learnt constraints type org.sat4j.pb.constraints.pb.MaxWatchPb	: 366
c learnt constraints type org.sat4j.pb.constraints.pb.MinWatchCardPB	: 64
